DIMENSION: 8
EDGE_WEIGHT_TYPE: EXPLICIT
EDGE_WEIGHT_FORMAT: FULL_MATRIX
EDGE_WEIGHT_SECTION:
32767 12 86 31 57 73 32767 42 
12 32767 36 22 84 36 20 10 
86 36 32767 1 32767 59 28 78 
31 22 1 32767 89 21 63 61 
57 84 32767 89 32767 87 32767 80 
73 36 59 21 87 32767 43 32767 
32767 20 28 63 32767 43 32767 78 
42 10 78 61 80 32767 78 32767 
EOF